NAME : LPS-n30-m330
COMMENT : (Lartu-Peter-Santi Plot, instance 11130 out of 39200. 30 customers.)
TYPE : CVRP
DIMENSION : 30
EDGE_WEIGHT_TYPE : EUC_2D
CAPACITY : 73
NODE_COORD_SECTION
 1 47 48
 2 54 35
 3 17 59
 4 44 2
 5 93 77
 6 62 36
 7 47 89
 8 36 97
 9 34 23
 10 23 20
 11 98 91
 12 70 43
 13 13 73
 14 89 74
 15 40 84
 16 58 47
 17 82 96
 18 32 83
 19 1 96
 20 82 72
 21 68 47
 22 72 94
 23 50 38
 24 3 60
 25 51 88
 26 25 76
 27 14 14
 28 46 53
 29 95 70
 30 85 74
DEMAND_SECTION
1 0
2 66
3 55
4 25
5 34
6 67
7 13
8 3
9 37
10 33
11 23
12 41
13 20
14 66
15 5
16 62
17 43
18 17
19 61
20 61
21 2
22 65
23 49
24 40
25 37
26 65
27 65
28 2
29 71
30 14
DEPOT_SECTION
 1
 -1
EOF
